10  10
  0  96  1  77  2  39  3  67  4  55  5  52  6  45  7  42  8  56  9  37
  0  97  1  78  2  39  3  89  4  21  5  24  6  13  7  52  8  18  9  67
  0  22  1  82  2  67  3  80  4  98  5  85  6  73  7  71  8  7  9  60
  0  30  1  98  2  73  3  22  4  67  5  9  6  62  7  93  8  87  9  98
  0  31  1  40  2  7  3  3  4  68  5  13  6  45  7  73  8  26  9  24
  0  55  1  91  2  65  3  55  4  73  5  21  6  1  7  98  8  24  9  20
  0  9  1  46  2  17  3  44  4  21  5  7  6  29  7  14  8  35  9  10
  0  46  1  42  2  10  3  7  4  4  5  30  6  24  7  12  8  73  9  81
  0  5  1  8  2  61  3  96  4  81  5  35  6  25  7  44  8  2  9  33
  0  23  1  24  2  14  3  84  4  62  5  60  6  18  7  17  8  92  9  3
